5 5
4 5 1 14 4 13 2 5 3 5 5 20 4 1 13 3 16 5 17 2 4 1 1 14 1 2 9
6 5 1 4 4 8 2 4 3 9 5 12 5 4 17 3 8 5 18 2 17 1 9 5 1 4 4 14 3 16 2 17 5 2 4 2 5 3 5 5 10 1 7 3 1 17 5 6 2 19 5 2 19 3 13 4 4 5 2 1 14
6 2 4 5 1 12 5 4 14 1 7 2 6 3 18 5 11 1 5 12 1 2 17 4 3 5 2 6 5 17 4 2 3 5 6 3 18 4 12
6 4 4 16 3 4 1 16 5 18 3 3 16 1 2 4 9 5 2 9 1 7 3 4 5 15 4 10 1 2 2 1 1 3 3 5 6 2 9 4 14
5 2 3 10 1 9 4 3 15 2 4 5 19 1 11 3 2 14 4 6 3 17 3 4 11 1 19 2 15 2 2 15 1 13